1821853
36,61,38,50,34,67,15,62,46,12,53,18,48,22,40,63,33,45,54,25,65,10,5,59,4,41,2,20,60,23,3,19,47,1,8,57,14,7,35,58,16,26,44,64,0,11,31,55,39,28,24,29,37,66,6,42,21,13,43,9,17,56,32,51,30,27,49,52,36